(declare-const A Int)
(declare-const B Int)
(declare-const C Int)
(declare-const D Int)
(declare-const E Int)
(declare-const F Int)
(declare-const G Int)
(declare-const H Int)
(declare-const I Int)

(assert 
    (and
        ;Answer limits (Distinct; between 1 and 9)
        (distinct A B C D E F G H I)
        (>= A 1)
        (>= B 1)
        (>= C 1)
        (>= D 1)
        (>= E 1)
        (>= F 1)
        (>= G 1)
        (>= H 1)
        (>= I 1)

        (<= A 9)
        (<= B 9)
        (<= C 9)
        (<= D 9)
        (<= E 9)
        (<= F 9)
        (<= G 9)
        (<= H 9)
        (<= I 9)

        ;Statements
        (= (* 4 F) E)
        (= I (* G H))
        (=>
            (not (= (+ C E) 12))
            (= G (+ D E 2))
        )
        (= B (+ A H))
        (not (= (+ A G) C))
    )
)

(check-sat)
(get-model)
(exit)